c ---- [ banner ] ------------------------------------------------------------
c
c Kissat SAT Solver
c 
c Copyright (c) 2021-2024 Armin Biere University of Freiburg
c Copyright (c) 2019-2021 Armin Biere Johannes Kepler University Linz
c 
c Version 4.0.1 43f02cf3e992cb44653b35e5cb26f93281552ae0
c gcc (Ubuntu 13.2.0-23ubuntu4) 13.2.0 -W -Wall -O3 -DNDEBUG
c Thu Sep 12 12:27:46 CEST 2024 Linux abryzen9 6.8.0-41-generic x86_64
c
c ---- [ parsing ] -----------------------------------------------------------
c
c opened and reading DIMACS file:
c
c   /data/artifact/AMulet2.0_artifact/exp4/cnf_resyn3_64/64_64_U2_DT_RC_Multgen_resyn3.cnf
c
c parsed 'p cnf 26089 120425' header
c closing input after reading 2411610 bytes (2 MB)
c finished parsing after 0.03 seconds
c
c ---- [ options ] -----------------------------------------------------------
c
c --stable=0                       (different from default '1')
c
c ---- [ solving ] -----------------------------------------------------------
c
c  seconds switched rate     size/glue tier1 binary          remaining
c         MB reductions conflicts size  tier2   irredundant
c          level restarts redundant glue  trail         variables
c
c *  0.03 10 0 0 0  0 0   0   0 0.0 0 0 0 0 0% 951 119472 26086 100%
c (  0.05 12 0 0 0  0 0   0   0 0.0 0 0 0 0 0% 951 119472 26086 100%
c .  0.06 12 0 0 0  0 0   0   0 0.0 0 0 0 0 0% 947 119472 26086 100%
c =  0.18 17 0 0 0  0 0   0   0 0.0 0 0 0 0 0% 1678 119472 25765 99%
c d  0.19 17 0 0 0  0 0   0   0 0.0 0 0 0 0 0% 1036 119472 25765 99%
c f  0.33 16 0 0 0  0 0   0   0 0.0 0 0 0 0 0% 7644 109547 29075 111%
c e  0.57 25 0 0 0  0 0   0   0 0.0 0 0 0 0 0% 636 119299 19456 75%
c )  0.57 25 0 0 0  0 0   0   0 0.0 0 0 0 0 0% 636 119299 19456 75%
c {  0.59 25 0 0 0  0 0   0   0 0.0 0 0 2 6 0% 636 119299 19456 75%
c -  0.88 25 158 0 1 187 32 1001 823 3.2 16 5 3 9 22% 644 119299 19456 75%
c -  1.09 25 232 0 2 280 34 2001 1550 2.9 14 5 3 10 24% 671 119299 19456 75%
c d  1.23 25 245 0 2 334 36 2503 1988 2.8 14 5 3 10 25% 665 119299 19448 75%
c u  1.25 25 245 0 2 334 36 2503 1695 2.8 14 5 3 10 25% 666 119299 19448 75%
c v  1.27 25 245 0 2 334 36 2503 1481 2.8 14 5 3 10 25% 666 119299 19448 75%
c w  1.29 25 245 0 2 334 36 2503 1469 2.8 14 5 3 10 25% 666 119299 19448 75%
c x  1.32 25 245 0 2 334 36 2503 1469 2.8 14 5 3 10 25% 668 119293 19448 75%
c =  1.40 25 245 0 2 334 36 2503 1469 2.8 14 5 3 10 25% 694 119293 19435 74%
c d  1.41 25 245 0 2 334 36 2503 1468 2.8 14 5 3 10 25% 667 119293 19435 74%
c t  1.42 25 245 0 2 334 36 2503 1468 2.8 14 5 3 10 25% 666 119293 19435 74%
c f  1.45 25 245 0 2 334 36 2503 1468 2.8 14 5 3 10 25% 668 119288 19437 75%
c
c  seconds   switched   rate       size/glue tier1    binary          remaining
c         MB  reductions conflicts       size  tier2     irredundant
c           level restarts    redundant    glue    trail         variables
c
c c  1.54 22 245 0 2 334 36 2503 1468 2.8 14 5 3 10 25% 670 119280 19436 75%
c d  1.55 22 245 0 2 334 36 2503 1468 2.8 14 5 3 10 25% 668 119280 19436 75%
c u  1.57 22 245 0 2 334 36 2503 1440 2.8 14 5 3 10 25% 668 119280 19436 75%
c v  1.59 22 245 0 2 334 36 2503 1399 2.8 14 5 3 10 25% 668 119280 19436 75%
c w  1.61 23 245 0 2 334 36 2503 1394 2.8 14 5 3 10 25% 668 119280 19436 75%
c =  1.68 25 245 0 2 334 36 2503 1394 2.8 14 5 3 10 25% 736 119280 19402 74%
c d  1.69 25 245 0 2 334 36 2503 1394 2.8 14 5 3 10 25% 668 119280 19402 74%
c f  1.73 25 245 0 2 334 36 2503 1394 2.8 14 5 3 10 25% 690 119247 19413 74%
c -  2.03 28 304 0 3 449 43 3417 2015 3.2 16 5 3 10 26% 705 119247 19413 74%
c -  2.54 28 287 0 4 630 41 5149 3210 3.2 17 5 2 9 27% 735 119247 19413 74%
c -  3.05 28 315 0 5 853 43 7149 4458 3.3 18 6 2 9 26% 788 119247 19413 74%
c d  3.30 28 311 0 5 925 43 7709 4969 3.4 19 6 2 9 27% 753 119247 19393 74%
c u  3.34 28 311 0 5 925 43 7709 4650 3.4 19 6 2 9 27% 757 119247 19393 74%
c v  3.37 28 311 0 5 925 43 7709 3929 3.4 19 6 2 9 27% 757 119247 19393 74%
c w  3.43 28 311 0 5 925 43 7709 3918 3.4 19 6 2 9 27% 757 119247 19393 74%
c x  3.46 28 311 0 5 925 43 7709 3918 3.4 19 6 2 9 27% 757 119176 19393 74%
c =  3.62 28 311 0 5 925 43 7709 3918 3.4 19 6 2 9 27% 851 119176 19346 74%
c d  3.63 28 311 0 5 925 43 7709 3910 3.4 19 6 2 9 27% 753 119176 19346 74%
c t  3.65 28 311 0 5 925 43 7709 3910 3.4 19 6 2 9 27% 750 119176 19346 74%
c f  3.69 28 311 0 5 925 43 7709 3910 3.4 19 6 2 9 27% 880 118981 19411 74%
c
c  seconds   switched   rate       size/glue tier1   binary          remaining
c         MB  reductions conflicts       size  tier2    irredundant
c           level restarts    redundant    glue   trail         variables
c
c u  3.73 28 311 0 5 925 43 7709 3852 3.4 19 6 2 9 27% 882 118981 19411 74%
c v  3.76 28 311 0 5 925 43 7709 3760 3.4 19 6 2 9 27% 882 118981 19411 74%
c w  3.81 28 311 0 5 925 43 7709 3751 3.4 19 6 2 9 27% 882 118981 19411 74%
c =  3.97 28 311 0 5 925 43 7709 3751 3.4 19 6 2 9 27% 1024 118981 19340 74%
c d  3.98 28 311 0 5 925 43 7709 3743 3.4 19 6 2 9 27% 874 118981 19340 74%
c t  3.99 28 311 0 5 925 43 7709 3743 3.4 19 6 2 9 27% 815 118981 19340 74%
c f  4.04 28 311 0 5 925 43 7709 3743 3.4 19 6 2 9 27% 955 118771 19410 74%
c -  4.64 28 314 0 6 1096 44 9385 4766 3.5 20 6 2 9 28% 973 118771 19410 74%
c o  4.86 28 329 0 6 1155 44 10023 5364 3.5 20 6 2 9 28% 977 118771 19410 74%
c -  5.46 28 318 0 7 1337 43 11834 6236 3.6 21 6 2 9 28% 1035 118771 19410 74%
c s  5.80 28 315 0 7 1437 44 12516 6875 3.7 22 6 2 9 28% 1042 116231 19410 74%
c e  5.91 28 315 0 7 1437 44 12516 6875 3.7 22 6 2 9 28% 936 116234 19209 74%
c s  5.92 28 315 0 7 1437 44 12516 6875 3.7 22 6 2 9 28% 936 116114 19209 74%
c ^  5.93 28 315 0 7 1437 44 12516 6875 3.7 22 6 2 9 28% 936 116114 19209 74%
c -  6.31 28 310 0 8 1564 41 14479 7442 3.7 22 6 2 8 27% 1026 116114 19209 74%
c c  6.67 28 309 0 8 1646 40 15793 8544 3.6 21 6 2 8 27% 1080 115826 19162 73%
c d  6.68 28 309 0 8 1646 40 15793 8472 3.6 21 6 2 8 27% 982 115826 19160 73%
c u  6.72 28 309 0 8 1646 40 15793 7891 3.6 21 6 2 8 27% 988 115826 19160 73%
c v  6.77 28 309 0 8 1646 40 15793 6840 3.6 21 6 2 8 27% 988 115826 19160 73%
c w  6.85 28 309 0 8 1646 40 15793 6796 3.6 21 6 2 8 27% 988 115826 19160 73%
c
c  seconds   switched    rate        size/glue tier1    binary          remaining
c         MB  reductions   conflicts       size  tier2     irredundant
c           level  restarts     redundant    glue   trail          variables
c
c =  7.07 28 309 0 8 1646 40 15793 6796 3.6 21 6 2 8 27% 4274 115826 17517 67%
c d  7.08 28 309 0 8 1646 40 15793 6748 3.6 21 6 2 8 27% 931 115826 17517 67%
c t  7.09 28 309 0 8 1646 40 15793 6748 3.6 21 6 2 8 27% 873 115826 17517 67%
c u  7.20 28 309 0 8 1646 40 15793 6596 3.6 21 6 2 8 27% 875 115826 17517 67%
c v  7.23 28 309 0 8 1646 40 15793 6428 3.6 21 6 2 8 27% 875 115826 17517 67%
c w  7.30 28 309 0 8 1646 40 15793 6401 3.6 21 6 2 8 27% 875 115826 17517 67%
c x  7.36 28 309 0 8 1646 40 15793 6401 3.6 21 6 2 8 27% 875 108316 17517 67%
c =  7.60 28 309 0 8 1646 40 15793 6401 3.6 21 6 2 8 27% 3879 108316 16015 61%
c d  7.60 28 309 0 8 1646 40 15793 6317 3.6 21 6 2 8 27% 740 108316 16015 61%
c -  8.22 28 314 0 9 1869 42 17309 7024 3.7 23 6 2 8 27% 755 108316 16015 61%
c o  8.73 28 307 0 9 2019 39 20041 9403 3.5 22 6 2 8 26% 802 108316 16015 61%
c -  8.80 28 307 0 10 2051 39 20309 8888 3.5 22 6 2 8 26% 802 108316 16015 61%
c -  9.59 28 296 0 11 2308 38 23471 10599 3.5 22 6 2 7 26% 848 108316 16015 61%
c s 10.03 28 288 0 11 2469 37 25026 11979 3.5 23 6 2 7 26% 867 95861 16015 61%
c e 10.14 28 288 0 11 2469 37 25026 11979 3.5 23 6 2 7 26% 672 96119 15761 60%
c s 10.15 28 288 0 11 2469 37 25026 11979 3.5 23 6 2 7 26% 709 95463 15761 60%
c ^ 10.16 28 288 0 11 2469 37 25026 11979 3.5 23 6 2 7 26% 709 95463 15761 60%
c - 10.61 28 279 0 12 2658 37 26788 11558 3.5 22 6 2 7 26% 718 95463 15761 60%
c c 10.69 28 279 0 12 2660 37 26923 11678 3.5 22 6 2 7 26% 799 95091 15715 60%
c d 10.69 28 279 0 12 2660 37 26923 11623 3.5 22 6 2 7 26% 702 95091 15713 60%
c
c  seconds   switched     rate         size/glue tier1   binary         remaining
c         MB   reductions   conflicts        size  tier2    irredundant
c           level   restarts      redundant    glue   trail        variables
c
c u 10.74 28 279 0 12 2660 37 26923 10624 3.5 22 6 2 7 26% 712 95091 15713 60%
c v 10.80 28 279 0 12 2660 37 26923 9519 3.5 22 6 2 7 26% 714 95091 15713 60%
c w 10.81 28 279 0 12 2660 37 26923 9519 3.5 22 6 2 7 26% 714 95091 15713 60%
c = 11.05 28 279 0 12 2660 37 26923 9519 3.5 22 6 2 7 26% 3638 95091 14251 55%
c d 11.05 28 279 0 12 2660 37 26923 9238 3.5 22 6 2 7 26% 648 95091 14251 55%
c t 11.06 28 279 0 12 2660 37 26923 9238 3.5 22 6 2 7 26% 627 95091 14251 55%
c f 11.11 28 279 0 12 2660 37 26923 9238 3.5 22 6 2 7 26% 645 95037 14260 55%
c c 11.16 28 279 0 12 2660 37 26923 9238 3.5 22 6 2 7 26% 653 95005 14256 55%
c d 11.17 28 279 0 12 2660 37 26923 9238 3.5 22 6 2 7 26% 645 95005 14256 55%
c u 11.20 28 279 0 12 2660 37 26923 8945 3.5 22 6 2 7 26% 645 95005 14256 55%
c v 11.22 28 279 0 12 2660 37 26923 8751 3.5 22 6 2 7 26% 645 95005 14256 55%
c w 11.23 28 279 0 12 2660 37 26923 8750 3.5 22 6 2 7 26% 645 95005 14256 55%
c x 11.27 28 279 0 12 2660 37 26923 8750 3.5 22 6 2 7 26% 647 91447 14256 55%
c = 11.42 28 279 0 12 2660 37 26923 8750 3.5 22 6 2 7 26% 1035 91447 14062 54%
c d 11.43 28 279 0 12 2660 37 26923 8720 3.5 22 6 2 7 26% 645 91447 14062 54%
c t 11.44 28 279 0 12 2660 37 26923 8720 3.5 22 6 2 7 26% 644 91447 14062 54%
c - 11.79 28 277 0 13 2902 36 30252 10616 3.4 22 6 2 7 26% 676 91446 14062 54%
c - 12.45 28 265 0 14 3386 36 33860 12585 3.5 23 7 2 6 26% 714 91446 14062 54%
c - 12.99 28 253 0 15 3724 35 37602 14146 3.5 24 7 2 6 26% 785 91446 14062 54%
c o 13.19 28 245 0 15 3857 33 40051 16156 3.4 23 7 2 6 25% 819 91446 14062 54%
c
c  seconds   switched     rate         size/glue tier1   binary         remaining
c         MB   reductions   conflicts        size  tier2    irredundant
c           level   restarts      redundant    glue   trail        variables
c
c d 13.39 28 242 0 15 4002 33 41252 17005 3.5 24 7 2 6 25% 720 91446 14011 54%
c u 13.43 28 242 0 15 4002 33 41252 15149 3.5 24 7 2 6 25% 748 91446 14011 54%
c v 13.47 28 242 0 15 4002 33 41252 14251 3.5 24 7 2 6 25% 748 91446 14011 54%
c w 13.50 28 242 0 15 4002 33 41252 14251 3.5 24 7 2 6 25% 748 91446 14011 54%
c x 13.53 28 242 0 15 4002 33 41252 14251 3.5 24 7 2 6 25% 748 91438 14011 54%
c = 13.71 28 242 0 15 4002 33 41252 14251 3.5 24 7 2 6 25% 768 91438 14001 54%
c d 13.72 28 242 0 15 4002 33 41252 14206 3.5 24 7 2 6 25% 723 91438 13991 54%
c f 13.73 28 242 0 15 4002 33 41252 14206 3.5 24 7 2 6 25% 749 91335 14004 54%
c c 13.77 28 242 0 15 4002 33 41252 14000 3.5 24 7 2 6 25% 818 90997 13963 54%
c d 13.78 28 242 0 15 4002 33 41252 14000 3.5 24 7 2 6 25% 736 90997 13963 54%
c u 13.82 28 242 0 15 4002 33 41252 13711 3.5 24 7 2 6 25% 743 90997 13963 54%
c v 13.86 28 242 0 15 4002 33 41252 12958 3.5 24 7 2 6 25% 749 90997 13963 54%
c w 13.96 28 242 0 15 4002 33 41252 12916 3.5 24 7 2 6 25% 749 90997 13963 54%
c = 14.14 28 242 0 15 4002 33 41252 12916 3.5 24 7 2 6 25% 757 90997 13959 54%
c d 14.14 28 242 0 15 4002 33 41252 12907 3.5 24 7 2 6 25% 744 90997 13957 53%
c t 14.15 28 242 0 15 4002 33 41252 12907 3.5 24 7 2 6 25% 731 90997 13957 53%
c - 14.19 28 242 0 16 4009 33 41474 11916 3.5 23 7 2 6 25% 733 90997 13957 53%
c - 14.66 28 234 0 17 4318 32 45474 13973 3.4 23 7 2 6 25% 787 90997 13957 53%
c - 15.06 28 230 0 18 4594 31 49597 15738 3.4 23 7 2 6 25% 848 90997 13957 53%
c s 15.40 28 228 0 18 4788 30 52128 17930 3.4 23 7 2 6 24% 890 83314 13957 53%
c
c  seconds   switched     rate         size/glue tier1   binary         remaining
c         MB   reductions   conflicts        size  tier2    irredundant
c           level   restarts      redundant    glue   trail        variables
c
c e 15.45 28 228 0 18 4788 30 52128 17930 3.4 23 7 2 6 24% 755 83343 13846 53%
c s 15.46 28 228 0 18 4788 30 52128 17930 3.4 23 7 2 6 24% 755 83054 13846 53%
c e 15.46 28 228 0 18 4788 30 52128 17930 3.4 23 7 2 6 24% 755 83056 13845 53%
c ^ 15.46 28 228 0 18 4788 30 52128 17930 3.4 23 7 2 6 24% 755 83056 13845 53%
c - 15.74 28 227 0 19 4973 30 53840 16868 3.4 24 7 2 5 24% 773 83056 13845 53%
c - 16.26 28 221 0 20 5309 29 58198 18587 3.4 24 7 2 5 24% 847 83056 13845 53%
c c 16.34 28 220 0 20 5330 29 58883 19132 3.4 23 7 2 5 24% 937 82388 13754 53%
c d 16.34 28 220 0 20 5330 29 58883 18787 3.4 23 7 2 5 24% 755 82388 13754 53%
c u 16.39 28 220 0 20 5330 29 58883 17281 3.4 23 7 2 5 24% 780 82388 13754 53%
c v 16.42 28 220 0 20 5330 29 58883 16420 3.4 23 7 2 5 24% 780 82388 13754 53%
c w 16.44 28 220 0 20 5330 29 58883 16352 3.4 23 7 2 5 24% 780 82388 13754 53%
c x 16.48 28 220 0 20 5330 29 58883 16352 3.4 23 7 2 5 24% 782 82224 13754 53%
c d 16.67 28 220 0 20 5330 29 58883 16316 3.4 23 7 2 5 24% 768 82224 13747 53%
c t 16.68 28 220 0 20 5330 29 58883 16316 3.4 23 7 2 5 24% 766 82224 13747 53%
c f 16.69 28 220 0 20 5330 29 58883 16316 3.4 23 7 2 5 24% 770 82208 13749 53%
c c 16.72 28 220 0 20 5330 29 58883 16271 3.4 23 7 2 5 24% 779 82160 13743 53%
c d 16.73 28 220 0 20 5330 29 58883 16271 3.4 23 7 2 5 24% 767 82160 13743 53%
c u 16.77 28 220 0 20 5330 29 58883 15177 3.4 23 7 2 5 24% 772 82160 13743 53%
c v 16.81 28 220 0 20 5330 29 58883 14559 3.4 23 7 2 5 24% 773 82160 13743 53%
c w 16.83 28 220 0 20 5330 29 58883 14417 3.4 23 7 2 5 24% 773 82160 13743 53%
c
c  seconds   switched     rate         size/glue tier1   binary         remaining
c         MB   reductions   conflicts        size  tier2    irredundant
c           level   restarts      redundant    glue   trail        variables
c
c x 16.87 28 220 0 20 5330 29 58883 14416 3.4 23 7 2 5 24% 774 82151 13743 53%
c d 16.87 28 220 0 20 5330 29 58883 14416 3.4 23 7 2 5 24% 772 82151 13742 53%
c t 16.88 28 220 0 20 5330 29 58883 14416 3.4 23 7 2 5 24% 769 82151 13742 53%
c - 17.46 28 219 0 21 5756 29 62675 16209 3.4 24 7 2 5 24% 836 82150 13742 53%
c - 18.12 28 214 0 22 6223 29 67257 18462 3.3 24 7 2 5 25% 895 82150 13742 53%
c o 18.63 28 211 0 22 6592 29 70052 21019 3.3 24 7 2 5 25% 918 82150 13742 53%
c - 18.84 28 210 0 23 6731 29 71947 18264 3.3 24 7 1 5 25% 953 82150 13742 53%
c - 19.73 28 204 0 24 7310 29 76742 18925 3.3 25 7 1 5 25% 994 82150 13742 53%
c d 20.32 28 201 0 24 7707 28 79960 21649 3.3 25 7 1 5 26% 848 82150 13652 52%
c u 20.36 28 201 0 24 7707 28 79960 19983 3.3 25 7 1 5 26% 863 82150 13652 52%
c v 20.43 28 201 0 24 7707 28 79960 17250 3.3 25 7 1 5 26% 878 82150 13652 52%
c w 20.63 28 201 0 24 7707 28 79960 17137 3.3 25 7 1 5 26% 878 82150 13652 52%
c = 20.73 28 201 0 24 7707 28 79960 17137 3.3 25 7 1 5 26% 1152 82150 13515 52%
c d 20.73 28 201 0 24 7707 28 79960 16950 3.3 25 7 1 5 26% 806 82150 13511 52%
c c 20.78 28 201 0 24 7707 28 79960 16950 3.3 25 7 1 5 26% 848 81921 13485 52%
c d 20.79 28 201 0 24 7707 28 79960 16905 3.3 25 7 1 5 26% 796 81921 13485 52%
c u 20.82 28 201 0 24 7707 28 79960 16545 3.3 25 7 1 5 26% 799 81921 13485 52%
c v 20.87 28 201 0 24 7707 28 79960 16006 3.3 25 7 1 5 26% 800 81921 13485 52%
c w 20.99 28 201 0 24 7707 28 79960 15672 3.3 25 7 1 5 26% 800 81921 13485 52%
c x 21.05 28 201 0 24 7707 28 79960 15669 3.3 25 7 1 5 26% 824 79947 13485 52%
c
c  seconds   switched     rate         size/glue tier1    binary         remaining
c         MB   reductions   conflicts        size  tier2     irredundant
c           level   restarts      redundant    glue   trail         variables
c
c = 21.40 28 201 0 24 7707 28 79960 15669 3.3 25 7 1 5 26% 1386 79947 13204 51%
c d 21.40 28 201 0 24 7707 28 79960 15506 3.3 25 7 1 5 26% 780 79947 13204 51%
c t 21.41 28 201 0 24 7707 28 79960 15506 3.3 25 7 1 5 26% 756 79947 13204 51%
c - 21.57 28 200 0 25 7811 28 81640 14561 3.3 25 7 1 5 25% 767 79946 13204 51%
c - 22.12 28 196 0 26 8208 27 86640 16405 3.3 25 7 1 5 25% 800 79946 13204 51%
c - 22.79 28 189 0 27 8680 27 91739 18136 3.3 24 7 1 5 25% 833 79946 13204 51%
c s 23.61 28 187 0 27 9296 27 95825 21989 3.3 25 8 1 5 26% 842 78229 13204 51%
c e 23.67 28 187 0 27 9296 27 95825 21989 3.3 25 8 1 5 26% 518 78997 12974 50%
c s 23.67 28 187 0 27 9296 27 95825 21989 3.3 25 8 1 5 26% 518 78843 12974 50%
c ^ 23.68 28 187 0 27 9296 27 95825 21989 3.3 25 8 1 5 26% 518 78843 12974 50%
c - 23.89 28 186 0 28 9446 27 96936 18706 3.3 25 8 1 5 26% 530 78843 12974 50%
c - 24.71 28 183 0 29 10072 27 102229 20102 3.3 25 8 1 5 26% 565 78843 12974 50%
c c 25.00 28 181 0 29 10233 26 104599 22224 3.3 25 8 1 5 26% 612 78574 12933 50%
c d 25.00 28 181 0 29 10233 26 104599 22070 3.3 25 8 1 5 26% 530 78574 12933 50%
c u 25.04 28 181 0 29 10233 26 104599 20549 3.3 25 8 1 5 26% 544 78574 12933 50%
c v 25.12 28 181 0 29 10233 26 104599 17734 3.3 25 8 1 5 26% 553 78574 12933 50%
c w 25.21 28 181 0 29 10233 26 104599 17646 3.3 25 8 1 5 26% 553 78574 12933 50%
c x 25.29 28 181 0 29 10233 26 104599 17641 3.3 25 8 1 5 26% 584 78304 12933 50%
c d 25.61 28 181 0 29 10233 26 104599 17621 3.3 25 8 1 5 26% 568 78304 12925 50%
c t 25.61 28 181 0 29 10233 26 104599 17621 3.3 25 8 1 5 26% 534 78304 12925 50%
c
c  seconds   switched      rate          size/glue tier1   binary         remaining
c         MB   reductions    conflicts         size  tier2    irredundant
c           level   restarts        redundant    glue   trail        variables
c
c c 25.66 28 181 0 29 10233 26 104599 17601 3.3 25 8 1 5 26% 536 78296 12924 50%
c d 25.67 28 181 0 29 10233 26 104599 17601 3.3 25 8 1 5 26% 534 78296 12924 50%
c u 25.70 28 181 0 29 10233 26 104599 17259 3.3 25 8 1 5 26% 538 78296 12924 50%
c v 25.75 28 181 0 29 10233 26 104599 16662 3.3 25 8 1 5 26% 542 78296 12924 50%
c w 25.86 28 181 0 29 10233 26 104599 16268 3.3 25 8 1 5 26% 542 78296 12924 50%
c d 25.87 28 181 0 29 10233 26 104599 16268 3.3 25 8 1 5 26% 540 78296 12923 50%
c - 26.18 28 178 0 30 10414 26 107614 16483 3.2 25 8 1 5 26% 549 78296 12923 50%
c o 26.45 28 178 0 30 10609 26 110054 18566 3.2 25 8 1 5 26% 559 78296 12923 50%
c - 26.75 28 175 0 31 10807 25 113092 18452 3.2 25 8 1 5 26% 582 78296 12923 50%
c - 27.20 28 168 0 32 11063 24 118661 19960 3.2 24 8 1 5 25% 629 78296 12923 50%
c - 27.67 28 162 0 33 11357 23 124317 21076 3.1 24 8 1 5 25% 656 78295 12923 50%
c - 28.25 28 158 0 34 11759 22 130061 22104 3.1 24 8 1 5 25% 690 78293 12923 50%
c d 28.52 28 155 0 34 11949 22 132879 24503 3.1 24 8 1 5 25% 630 78289 12883 49%
c u 28.57 28 155 0 34 11949 22 132879 22837 3.1 24 8 1 5 25% 650 78289 12883 49%
c v 28.64 28 155 0 34 11949 22 132879 21141 3.1 24 8 1 5 25% 650 78289 12883 49%
c w 28.67 28 155 0 34 11949 22 132879 21132 3.1 24 8 1 5 25% 650 78289 12883 49%
c x 28.71 28 155 0 34 11949 22 132879 21129 3.1 24 8 1 5 25% 662 78255 12883 49%
c d 28.96 28 155 0 34 11949 22 132879 21081 3.1 24 8 1 5 25% 642 78253 12873 49%
c t 28.97 28 155 0 34 11949 22 132879 21081 3.1 24 8 1 5 25% 625 78253 12873 49%
c c 29.01 28 155 0 34 11949 22 132879 20983 3.1 24 8 1 5 25% 658 78049 12853 49%
c
c  seconds   switched      rate          size/glue tier1   binary         remaining
c         MB   reductions    conflicts         size  tier2    irredundant
c           level   restarts        redundant    glue   trail        variables
c
c d 29.01 28 155 0 34 11949 22 132879 20971 3.1 24 8 1 5 25% 618 78049 12853 49%
c u 29.05 28 155 0 34 11949 22 132879 20687 3.1 24 8 1 5 25% 624 78049 12853 49%
c v 29.11 28 155 0 34 11949 22 132879 19211 3.1 24 8 1 5 25% 637 78049 12853 49%
c w 29.22 28 155 0 34 11949 22 132879 18843 3.1 24 8 1 5 25% 637 78049 12853 49%
c d 29.23 28 155 0 34 11949 22 132879 18834 3.1 24 8 1 5 25% 627 78049 12848 49%
c t 29.23 28 155 0 34 11949 22 132879 18834 3.1 24 8 1 5 25% 624 78049 12848 49%
c - 29.43 28 152 0 35 12041 21 135891 18234 3.0 23 8 1 5 25% 652 78048 12848 49%
c - 29.85 28 145 0 36 12297 20 141808 20298 3.0 23 8 1 5 24% 662 78048 12848 49%
c - 30.20 28 140 0 37 12505 19 147808 21795 2.9 22 8 1 5 23% 703 78048 12848 49%
c - 30.42 28 133 0 38 12664 18 153891 22883 2.9 22 7 1 5 22% 728 78048 12848 49%
c i 30.52 28 129 0 38 12711 18 157429 25950 2.9 21 7 1 5 22% 756 78048 12847 49%
c s 30.53 28 128 0 38 12711 18 157962 26434 2.9 21 7 1 5 22% 756 77926 12847 49%
c e 30.63 28 128 0 38 12711 18 157962 26434 2.9 21 7 1 5 22% 689 88029 11530 44%
c s 30.64 28 128 0 38 12711 18 157962 26434 2.9 21 7 1 5 22% 690 85337 11530 44%
c e 30.67 28 128 0 38 12711 18 157962 26434 2.9 21 7 1 5 22% 687 85408 11516 44%
c ^ 30.67 28 128 0 38 12711 18 157962 26434 2.9 21 7 1 5 22% 687 85408 11516 44%
c i 30.68 28 128 0 38 12719 18 158214 19338 2.9 21 7 1 5 22% 695 85406 11514 44%
c i 30.68 28 128 0 38 12719 18 158218 19338 2.9 21 7 1 5 22% 696 85406 11513 44%
c i 30.68 28 128 0 38 12719 18 158226 19340 2.9 21 7 1 5 22% 698 85406 11512 44%
c i 30.68 28 128 0 38 12719 18 158242 19340 2.9 21 7 1 5 21% 701 85406 11509 44%
c
c  seconds   switched      rate          size/glue tier1   binary         remaining
c         MB   reductions    conflicts         size  tier2    irredundant
c           level   restarts        redundant    glue   trail        variables
c
c } 30.68 28 128 0 38 12719 18 158245 19340 2.9 21 7 1 5 21% 702 85406 11503 44%
c 0 30.68 28 128 0 38 12719 18 158245 19340 2.9 21 7 1 5 21% 702 85406 11503 44%
c
c ---- [ result ] ------------------------------------------------------------
c
s UNSATISFIABLE
c
c ---- [ profiling ] ---------------------------------------------------------
c
c          22.19   72.33 %  search
c          22.19   72.33 %  focused
c           7.90   25.76 %  simplify
c           7.55   24.62 %  probe
c           2.95    9.62 %  vivify
c           2.88    9.40 %  sweep
c           0.62    2.03 %  eliminate
c           0.58    1.90 %  factor
c           0.57    1.84 %  congruence
c           0.51    1.68 %  preprocess
c           0.45    1.46 %  substitute
c           0.23    0.75 %  fastel
c           0.18    0.58 %  reduce
c           0.10    0.34 %  subsume
c           0.07    0.24 %  transitive
c           0.05    0.15 %  backbone
c           0.04    0.14 %  lucky
c           0.03    0.10 %  parse
c =============================================
c          30.68  100.00 %  total
c
c ---- [ statistics ] --------------------------------------------------------
c
c chronological:                         5697                4 %  conflicts
c conflicts:                           158245             5158.36 per second
c congruent:                              324                1 %  variables
c decisions:                          3234569               20.44 per conflict
c eliminated:                           11747               45 %  variables
c factored:                              3482               13 %  variables
c fast_eliminated:                       9619               82 %  eliminated
c fast_strengthened:                        1                0 %  per strengthened
c fast_subsumed:                          266                1 %  per subsumed
c iterations:                               6                0 %  variables
c propagations:                     122244292          3984834    per second
c reductions:                              38             4164    interval
c reordered:                                5            31649    interval
c restarts:                             12719               12    interval
c strengthened:                          3376                0 %  checks
c substituted:                           6304               24 %  variables
c subsumed:                             28652                1 %  checks
c switched:                                 0                0    interval
c vivified:                             57302               13 %  checks
c
c ---- [ glue usage ] --------------------------------------------------------
c
c focused glue 1 used 273772 clauses 57.27% accumulated 57.27% tier1
c focused glue 2 used  97723 clauses 20.44% accumulated 77.71%
c focused glue 3 used  32021 clauses  6.70% accumulated 84.41%
c focused glue 4 used  18800 clauses  3.93% accumulated 88.34%
c focused glue 5 used  12682 clauses  2.65% accumulated 91.00% tier2
c
c ---- [ resources ] ---------------------------------------------------------
c
c maximum-resident-set-size:         29028352 bytes         28 MB
c process-time:                            31s              30.68 seconds
c
c ---- [ shutting down ] -----------------------------------------------------
c
c exit 20
